WARNING: for repeatability, setting FPU to use double precision
============================[ Problem Statistics ]=============================
|                                                                             |
|  Number of variables:           100                                         |
|  Number of clauses:             449                                         |
|  Parse time:                   0.00 s                                       |
|  Simplification time:          0.00 s                                       |
|                                                                             |
============================[ Search Statistics ]==============================
| Conflicts |          ORIGINAL         |          LEARNT          | Progress |
|           |    Vars  Clauses Literals |    Limit  Clauses Lit/Cl |          |
===============================================================================
|       100 |     100      449     1347 |      164      100      8 |  0.010 % |
|       250 |     100      449     1347 |      181      164      6 |  0.011 % |
===============================================================================
restarts              : 3
conflicts             : 257            (80665 /sec)
decisions             : 322            (0.00 % random) (101067 /sec)
propagations          : 5617           (1763026 /sec)
conflict literals     : 1779           (15.12 % deleted)
Memory used           : 13.00 MB
CPU time              : 0.003186 s

SATISFIABLE
